(set-logic QF_LRA)
(declare-fun X0 () Real )
(declare-fun Y0 () Real )
(declare-fun X1 () Real )
(declare-fun Y1 () Real )
(declare-fun X2 () Real )
(declare-fun Y2 () Real )
(declare-fun X3 () Real )
(declare-fun Y3 () Real )
(declare-fun X4 () Real )
(declare-fun Y4 () Real )
(declare-fun X5 () Real )
(declare-fun Y5 () Real )
(declare-fun Z () Real )
(declare-fun k () Real )
(assert (let
(( $goal (>= Z k) ))
(let
((
$phi ( and 
( or ( <= ( + X0 25 ) X1 )  ( <= ( + X1 52 ) X0 )  ( <= ( + Y0 57 ) Y1 )  ( <= ( + Y1 64 ) Y0 )  )
( or ( <= ( + X0 25 ) X2 )  ( <= ( + X2 81 ) X0 )  ( <= ( + Y0 57 ) Y2 )  ( <= ( + Y2 70 ) Y0 )  )
( or ( <= ( + X0 25 ) X3 )  ( <= ( + X3 84 ) X0 )  ( <= ( + Y0 57 ) Y3 )  ( <= ( + Y3 93 ) Y0 )  )
( or ( <= ( + X0 25 ) X4 )  ( <= ( + X4 56 ) X0 )  ( <= ( + Y0 57 ) Y4 )  ( <= ( + Y4 18 ) Y0 )  )
( or ( <= ( + X0 25 ) X5 )  ( <= ( + X5 61 ) X0 )  ( <= ( + Y0 57 ) Y5 )  ( <= ( + Y5 47 ) Y0 )  )
( or ( <= ( + X1 52 ) X2 )  ( <= ( + X2 81 ) X1 )  ( <= ( + Y1 64 ) Y2 )  ( <= ( + Y2 70 ) Y1 )  )
( or ( <= ( + X1 52 ) X3 )  ( <= ( + X3 84 ) X1 )  ( <= ( + Y1 64 ) Y3 )  ( <= ( + Y3 93 ) Y1 )  )
( or ( <= ( + X1 52 ) X4 )  ( <= ( + X4 56 ) X1 )  ( <= ( + Y1 64 ) Y4 )  ( <= ( + Y4 18 ) Y1 )  )
( or ( <= ( + X1 52 ) X5 )  ( <= ( + X5 61 ) X1 )  ( <= ( + Y1 64 ) Y5 )  ( <= ( + Y5 47 ) Y1 )  )
( or ( <= ( + X2 81 ) X3 )  ( <= ( + X3 84 ) X2 )  ( <= ( + Y2 70 ) Y3 )  ( <= ( + Y3 93 ) Y2 )  )
( or ( <= ( + X2 81 ) X4 )  ( <= ( + X4 56 ) X2 )  ( <= ( + Y2 70 ) Y4 )  ( <= ( + Y4 18 ) Y2 )  )
( or ( <= ( + X2 81 ) X5 )  ( <= ( + X5 61 ) X2 )  ( <= ( + Y2 70 ) Y5 )  ( <= ( + Y5 47 ) Y2 )  )
( or ( <= ( + X3 84 ) X4 )  ( <= ( + X4 56 ) X3 )  ( <= ( + Y3 93 ) Y4 )  ( <= ( + Y4 18 ) Y3 )  )
( or ( <= ( + X3 84 ) X5 )  ( <= ( + X5 61 ) X3 )  ( <= ( + Y3 93 ) Y5 )  ( <= ( + Y5 47 ) Y3 )  )
( or ( <= ( + X4 56 ) X5 )  ( <= ( + X5 61 ) X4 )  ( <= ( + Y4 18 ) Y5 )  ( <= ( + Y5 47 ) Y4 )  )
( >= X0 0)
( <= ( + X0 25) Z)
( >= Y0 0)
( <= ( + Y0 57 ) 122)
( >= X1 0)
( <= ( + X1 52) Z)
( >= Y1 0)
( <= ( + Y1 64 ) 122)
( >= X2 0)
( <= ( + X2 81) Z)
( >= Y2 0)
( <= ( + Y2 70 ) 122)
( >= X3 0)
( <= ( + X3 84) Z)
( >= Y3 0)
( <= ( + Y3 93 ) 122)
( >= X4 0)
( <= ( + X4 56) Z)
( >= Y4 0)
( <= ( + Y4 18 ) 122)
( >= X5 0)
( <= ( + X5 61) Z)
( >= Y5 0)
( <= ( + Y5 47 ) 122)
) )
)(=> $phi $goal))))